76
24
0 25 29 30 31 32 34 35 37 41 42 43 45 48 50 52 53 54 56 57 58 59 61 64 67 68 70 72 73 74 75
1 24 25 30 32 33 34 35 37 41 42 43 44 45 46 48 51 52 53 54 55 56 57 58 59 61 62 64 65 66 67 68 69 71 72 73 74 75
2 24 26 27 29 30 32 34 35 41 42 43 44 45 48 50 52 54 55 56 57 58 59 62 64 67 68 70 71 72 73 74 75
3 29 30 31 32 37 39 41 42 43 44 45 46 48 49 50 51 52 53 55 57 58 59 62 63 64 67 68 69 72 73 74 75
4 24 30 32 34 35 41 42 43 44 45 46 50 51 52 53 54 56 57 58 59 62 64 65 68 69 71 72 73 74 75
5 26 29 30 31 32 34 35 37 39 42 44 45 47 48 51 53 54 56 57 59 61 62 64 67 68 71 72 73 74 75
6 29 30 31 32 34 35 36 37 38 39 40 41 42 43 44 45 47 48 50 51 52 53 55 56 57 58 59 62 63 64 70 73 74
7 24 29 30 31 33 34 37 39 40 41 42 43 45 46 47 48 50 52 55 57 58 59 67 68 71 72 73 74 75
8 24 29 30 31 35 37 40 41 43 44 45 46 48 51 53 55 56 58 59 61 64 65 67 70 71 73
9 24 26 31 34 35 37 41 43 44 46 48 50 51 52 53 54 55 56 64 74
10 25 26 30 31 33 34 35 41 44 45 46 50 53 54 55 57 59 60 61 62 63 64 67 68 69 70 71 72 73 74 75
11 27 29 32 33 35 37 39 42 43 46 47 49 50 51 52 54 55 56 57 60 63 64 67 68 70 71 72 73 75
12 24 26 29 32 33 38 39 40 41 42 43 44 45 46 51 52 53 57 62 63 66 67 68 69 70 71 73
13 24 29 30 32 34 36 41 42 44 46 47 50 52 55 57 58 64 67 71 73
14 24 26 28 32 34 35 38 42 45 52 53 54 57 58 59 62 66 67 69 70 74
15 24 30 31 32 33 36 53 54 55 56 59 62 63 64 68 71 73 75
16 29 34 35 41 43 45 46 51 54 55 56 61 67 73 74
17 34 36 44 54 58 61 70 73 75
18 24 31 41 44 60 66 72 75
19 29 31 39 41 45 48 50 55 57 61 71
20 33 37 47 48 53 56 60 63 68 70
21 25 37 40 42 45 52 56 58 61 74
22 59 62 64 66 74
23 69 71
